# Solution for model count
# Objective value = 10
z#1 0
z#2 0
z#3 0
z#4 1
z#5 1
z#6 0
z#7 0
z#8 1
z#9 1
z#10 1
z#11 0
z#12 0
z#13 1
z#14 1
z#15 1
z#16 0
z#17 0
z#18 0
z#19 0
z#20 0
z#21 1
z#22 0
z#23 0
z#24 1
x#24 259
x#23 0
x#22 0
x#21 1907
x#20 0
x#19 0
x#18 0
x#17 0
x#16 0
x#15 83
x#14 279
x#13 2395
x#12 0
x#11 0
x#10 123
x#9 1209
x#8 1569
x#7 0
x#6 0
x#5 515
x#4 1661
x#3 0
x#2 0
x#1 0
